g3 1 1 0	# problem propylene
 2 0 14 0 0 	# vars, constraints, objectives, ranges, eqns
 0 13 0 0 0 0	# nonlinear constrs, objs; ccons: lin, nonlin, nd, nzlb
 0 0	# network constraints: nonlinear, linear
 0 2 0 	# nonlinear vars in constraints, objectives, both
 0 0 0 1	# linear network variables; functions; arith, flags
 0 0 0 0 0 	# discrete variables: binary, integer, nonlinear (b,c,o)
 0 20 	# nonzeros in Jacobian, obj. gradient
 0 0	# max name lengths: constraints, variables
 0 0 0 0 0	# common exprs: b,c,o,c1,o1
O0 0
o0
o54
6
o43
v0
o2
n3
o43
v1
o2
n1.544
o43
o0
o16
o44
o2
n-0.8895942187358427
v1
n1
o2
n4.013
o43
o0
o16
o44
o2
n-2.671528317376466
v1
n1
o2
n8.923
o43
o0
o16
o44
o2
n-5.304617378387802
v1
n1
o2
n6.02
o43
o0
o16
o44
o2
n-11.85301926630442
v1
n1
n-5.182327965145101
O1 0
o5
v0
n-1.0
O2 0
o16
o5
v0
n-2.0
O3 0
o0
o54
5
o2
n3.0
o5
v1
n-1.0
o2
o2
n71.3551759831526
o5
o0
o16
o44
o2
n-11.85301926630442
v1
n1.0
n-1.0
o44
o2
n-11.85301926630442
v1
o2
o2
n10.720843137631757
o5
o0
o16
o44
o2
n-2.671528317376466
v1
n1.0
n-1.0
o44
o2
n-2.671528317376466
v1
o2
o2
n47.33310086735436
o5
o0
o16
o44
o2
n-5.304617378387802
v1
n1.0
n-1.0
o44
o2
n-5.304617378387802
v1
o2
o2
n1.373533473728141
o5
o0
o16
o44
o2
n-0.8895942187358427
v1
n1.0
n-1.0
o44
o2
n-0.8895942187358427
v1
n4.36399027654279
O4 0
o54
9
o2
n-3.0
o5
v1
n-2.0
o2
o2
n-845.7742756788502
o5
o0
o16
o44
o2
n-11.85301926630442
v1
n1.0
n-1.0
o44
o2
n-11.85301926630442
v1
o2
o2
n-845.7742756788502
o5
o0
o16
o44
o2
n-11.85301926630442
v1
n1.0
n-2.0
o44
o2
n-23.70603853260884
v1
o2
o2
n-28.641036028334398
o5
o0
o16
o44
o2
n-2.671528317376466
v1
n1.0
n-1.0
o44
o2
n-2.671528317376466
v1
o2
o2
n-28.641036028334398
o5
o0
o16
o44
o2
n-2.671528317376466
v1
n1.0
n-2.0
o44
o2
n-5.343056634752932
v1
o2
o2
n-251.0839894339507
o5
o0
o16
o44
o2
n-5.304617378387802
v1
n1.0
n-1.0
o44
o2
n-5.304617378387802
v1
o2
o2
n-251.0839894339507
o5
o0
o16
o44
o2
n-5.304617378387802
v1
n1.0
n-2.0
o44
o2
n-10.609234756775605
v1
o2
o2
n-1.2218874374687136
o5
o0
o16
o44
o2
n-0.8895942187358427
v1
n1.0
n-1.0
o44
o2
n-0.8895942187358427
v1
o2
o2
n-1.2218874374687136
o5
o0
o16
o44
o2
n-0.8895942187358427
v1
n1.0
n-2.0
o44
o2
n-1.7791884374716853
v1
O5 0
o54
21
o2
o2
n0.04341002
o5
v0
n4
v1
o2
o2
n1.136592
v0
o5
v1
n0.205
o2
o2
n-0.8528611
v0
o5
v1
n0.56
o2
o2
n0.5216669
o5
v0
n2
o5
v1
n0.676
o2
o2
n-1.382953
o5
v0
n2
v1
o2
o2
n0.1214347
o5
v0
n3
o5
v1
n0.5
o2
o2
o2
n-0.5984662
v0
v1
o44
o2
n-1.0
v0
o2
o2
o2
n-1.391883
v0
o5
v1
n1.94
o44
o16
o5
v0
n2
o2
o2
o2
n-1.008434
o5
v0
n3
o5
v1
n2
o44
o16
o5
v0
n2
o2
o2
o2
n0.1961249
o5
v0
n2
v1
o44
o2
n-1.0
v0
o2
o2
o2
n-0.360693
o5
v0
n2
o5
v1
n2.66
o44
o16
o5
v0
n2
o2
o2
o2
n-0.002407175
o5
v0
n8
o5
v1
n0.83
o44
o2
n-1.0
v0
o2
o2
o2
n0.7432121
v0
o5
v1
n1.6
o44
o0
o2
n-1.07
o5
o0
v0
n-0.78
n2
o2
n-0.77
o5
o0
v1
n-1.21
n2
o2
o2
o2
n0.1475162
v0
o5
v1
n2.5
o44
o0
o2
n-0.66
o5
o0
v0
n-0.82
n2
o2
n-0.83
o5
o0
v1
n-1.08
n2
o2
o2
o2
n-0.02503391
o5
v0
n2
o5
v1
n3
o44
o0
o2
n-1.2
o5
o0
v0
n-1.94
n2
o2
n-0.607
o5
o0
v1
n-0.83
n2
o2
o2
o2
n-0.2734409
o5
v0
n3
o5
v1
n2.5
o44
o0
o2
n-1.12
o5
o0
v0
n-0.69
n2
o2
n-0.4
o5
o0
v1
n-0.56
n2
o2
o2
o2
n0.006378889
o5
v0
n3
o5
v1
n2.72
o44
o0
o2
n-1.47
o5
o0
v0
n-1.96
n2
o2
n-0.66
o5
o0
v1
n-1.22
n2
o2
o2
o2
n0.0150294
o5
v0
n2
o5
v1
n4
o44
o0
o2
n-1.93
o5
o0
v0
n-1.3
n2
o2
n-0.07
o5
o0
v1
n-1.81
n2
o2
o2
o2
n-0.03162971
v0
o5
v1
n4
o44
o0
o2
n-3.3
o5
o0
v0
n-0.38
n2
o2
n-3.1
o5
o0
v1
n-1.54
n2
o2
o2
o2
n-0.04107194
o5
v0
n2
v1
o44
o0
o2
n-15.4
o5
o0
v0
n-0.91
n2
o2
n-387
o5
o0
v1
n-1.12
n2
o2
o2
o2
n-1.190241
o5
v0
n3
o5
v1
n4
o44
o0
o2
n-6
o5
o0
v0
n-0.7
n2
o2
n-41
o5
o0
v1
n-1.4
n2
O6 0
o54
35
o2
n1.136592
o5
v1
n0.205
o2
n-0.8528611
o5
v1
n0.56
o2
o2
n0.3643041
o5
v0
n2.0
o5
v1
n0.5
o2
o2
n0.7432121
o5
v1
n1.6
o44
o0
o2
n-0.77
o5
o0
v1
n-1.21
n2.0
o2
n-1.07
o5
o0
v0
n-0.78
n2.0
o2
o2
n1.0433338
v0
o5
v1
n0.676
o2
o2
n0.1475162
o5
v1
n2.5
o44
o0
o2
n-0.66
o5
o0
v0
n-0.82
n2.0
o2
n-0.83
o5
o0
v1
n-1.08
n2.0
o2
o2
n0.17364008
v1
o5
v0
n3.0
o2
o2
n-1.391883
o5
v1
n1.94
o44
o16
o5
v0
n2.0
o2
o2
n-2.765906
v0
v1
o2
o2
n-0.03162971
o5
v1
n4.0
o44
o0
o2
n-3.3
o5
o0
v0
n-0.38
n2.0
o2
n-3.1
o5
o0
v1
n-1.54
n2.0
o2
o2
n-0.5984662
v1
o44
o2
n-1.0
v0
o2
o2
o2
n2.783766
o5
v0
n2.0
o5
v1
n1.94
o44
o16
o5
v0
n2.0
o2
o2
o2
n0.9907159999999999
v0
v1
o44
o2
n-1.0
v0
o2
o2
o2
n0.002407175
o5
v0
n8.0
o5
v1
n0.83
o44
o2
n-1.0
v0
o2
o2
o2
n2.016868
o5
v0
n4.0
o5
v1
n2.0
o44
o16
o5
v0
n2.0
o2
o2
o2
n0.019136667
o5
v0
n2.0
o5
v1
n2.72
o44
o0
o2
n-0.66
o5
o0
v1
n-1.22
n2.0
o2
n-1.47
o5
o0
v0
n-1.96
n2.0
o2
o2
o2
n0.721386
o5
v0
n3.0
o5
v1
n2.66
o44
o16
o5
v0
n2.0
o2
o2
o2
n0.0300588
v0
o5
v1
n4.0
o44
o0
o2
n-0.07
o5
o0
v1
n-1.81
n2.0
o2
n-1.93
o5
o0
v0
n-1.3
n2.0
o2
o2
o2
n-3.025302
o5
v0
n2.0
o5
v1
n2.0
o44
o16
o5
v0
n2.0
o2
o2
o2
n-0.08214388
v0
v1
o44
o0
o2
n-387.0
o5
o0
v1
n-1.12
n2.0
o2
n-15.4
o5
o0
v0
n-0.91
n2.0
o2
o2
o2
n-0.0192574
o5
v0
n7.0
o5
v1
n0.83
o44
o2
n-1.0
v0
o2
o2
o2
n-0.1961249
v1
o5
v0
n2.0
o44
o2
n-1.0
v0
o2
o2
o2
n-0.05006782
v0
o5
v1
n3.0
o44
o0
o2
n-0.607
o5
o0
v1
n-0.83
n2.0
o2
n-1.2
o5
o0
v0
n-1.94
n2.0
o2
o2
o2
n-0.8203227
o5
v0
n2.0
o5
v1
n2.5
o44
o0
o2
n-1.12
o5
o0
v0
n-0.69
n2.0
o2
n-0.4
o5
o0
v1
n-0.56
n2.0
o2
o2
o2
n-3.570723
o5
v0
n2.0
o5
v1
n4.0
o44
o0
o2
n-41.0
o5
o0
v1
n-1.4
n2.0
o2
n-6.0
o5
o0
v0
n-0.7
n2.0
o2
o2
o2
n-0.721386
v0
o5
v1
n2.66
o44
o16
o5
v0
n2.0
o2
o2
o2
o2
n0.7432121
v0
o5
v1
n1.6
o0
o2
n-2.14
v0
n1.6692000000000002
o44
o0
o2
n-0.77
o5
o0
v1
n-1.21
n2.0
o2
n-1.07
o5
o0
v0
n-0.78
n2.0
o2
o2
o2
o2
n0.1475162
v0
o5
v1
n2.5
o0
o2
n-1.32
v0
n1.0824
o44
o0
o2
n-0.66
o5
o0
v0
n-0.82
n2.0
o2
n-0.83
o5
o0
v1
n-1.08
n2.0
o2
o2
o2
o2
n0.006378889
o5
v0
n3.0
o5
v1
n2.72
o0
o2
n-2.94
v0
n5.7623999999999995
o44
o0
o2
n-0.66
o5
o0
v1
n-1.22
n2.0
o2
n-1.47
o5
o0
v0
n-1.96
n2.0
o2
o2
o2
o2
n0.0150294
o5
v0
n2.0
o5
v1
n4.0
o0
o2
n-3.86
v0
n5.018
o44
o0
o2
n-0.07
o5
o0
v1
n-1.81
n2.0
o2
n-1.93
o5
o0
v0
n-1.3
n2.0
o2
o2
o2
o2
n-0.2734409
o5
v0
n3.0
o5
v1
n2.5
o0
o2
n-2.24
v0
n1.5456
o44
o0
o2
n-1.12
o5
o0
v0
n-0.69
n2.0
o2
n-0.4
o5
o0
v1
n-0.56
n2.0
o2
o2
o2
o2
n-0.04107194
v1
o5
v0
n2.0
o0
o2
n-30.8
v0
n28.028000000000002
o44
o0
o2
n-387.0
o5
o0
v1
n-1.12
n2.0
o2
n-15.4
o5
o0
v0
n-0.91
n2.0
o2
o2
o2
o2
n-0.02503391
o5
v0
n2.0
o5
v1
n3.0
o0
o2
n-2.4
v0
n4.656
o44
o0
o2
n-0.607
o5
o0
v1
n-0.83
n2.0
o2
n-1.2
o5
o0
v0
n-1.94
n2.0
o2
o2
o2
o2
n-0.03162971
v0
o5
v1
n4.0
o0
o2
n-6.6
v0
n2.508
o44
o0
o2
n-3.3
o5
o0
v0
n-0.38
n2.0
o2
n-3.1
o5
o0
v1
n-1.54
n2.0
o2
o2
o2
o2
n-1.190241
o5
v0
n3.0
o5
v1
n4.0
o0
o2
n-12.0
v0
n8.399999999999999
o44
o0
o2
n-41.0
o5
o0
v1
n-1.4
n2.0
o2
n-6.0
o5
o0
v0
n-0.7
n2.0
O7 0
o54
60
o2
n1.0433338
o5
v1
n0.676
o2
o2
n0.7286082
o5
v1
n0.5
v0
o2
o2
n1.5891821999999998
v1
o44
o2
n-1.0
v0
o2
o2
n0.52092024
v1
o5
v0
n2.0
o2
o2
n0.0300588
o5
v1
n4.0
o44
o0
o2
n-0.07
o5
o0
v1
n-1.81
n2.0
o2
n-1.93
o5
o0
v0
n-1.3
n2.0
o2
o2
n-0.08214388
v1
o44
o0
o2
n-387.0
o5
o0
v1
n-1.12
n2.0
o2
n-15.4
o5
o0
v0
n-0.91
n2.0
o2
o2
n-0.05006782
o5
v1
n3.0
o44
o0
o2
n-0.607
o5
o0
v1
n-0.83
n2.0
o2
n-1.2
o5
o0
v0
n-1.94
n2.0
o2
o2
n-0.721386
o5
v1
n2.66
o44
o16
o5
v0
n2.0
o2
o2
o2
n1.265015752
v1
o5
v0
n2.0
o44
o0
o2
n-387.0
o5
o0
v1
n-1.12
n2.0
o2
n-15.4
o5
o0
v0
n-0.91
n2.0
o2
o2
o2
n8.351298
o5
v1
n1.94
v0
o44
o16
o5
v0
n2.0
o2
o2
o2
n0.7432121
o5
v1
n1.6
o0
o2
n-2.14
v0
n1.6692000000000002
o44
o0
o2
n-0.77
o5
o0
v1
n-1.21
n2.0
o2
n-1.07
o5
o0
v0
n-0.78
n2.0
o2
o2
o2
n0.1475162
o5
v1
n2.5
o0
o2
n-1.32
v0
n1.0824
o44
o0
o2
n-0.66
o5
o0
v0
n-0.82
n2.0
o2
n-0.83
o5
o0
v1
n-1.08
n2.0
o2
o2
o2
n3.60693
o5
v1
n2.66
o5
v0
n2.0
o44
o16
o5
v0
n2.0
o2
o2
o2
n0.612507616
o5
v1
n2.5
o5
v0
n3.0
o44
o0
o2
n-1.12
o5
o0
v0
n-0.69
n2.0
o2
n-0.4
o5
o0
v1
n-0.56
n2.0
o2
o2
o2
n0.0385148
o5
v1
n0.83
o5
v0
n7.0
o44
o2
n-1.0
v0
o2
o2
o2
n0.1961249
v1
o5
v0
n2.0
o44
o2
n-1.0
v0
o2
o2
o2
n14.282892
o5
v1
n4.0
o5
v0
n3.0
o44
o0
o2
n-6.0
o5
o0
v0
n-0.7
n2.0
o2
n-41.0
o5
o0
v1
n-1.4
n2.0
o2
o2
o2
n0.038273334
o5
v1
n2.72
v0
o44
o0
o2
n-0.66
o5
o0
v1
n-1.22
n2.0
o2
n-1.47
o5
o0
v0
n-1.96
n2.0
o2
o2
o2
n0.20875608599999998
v0
o5
v1
n4.0
o44
o0
o2
n-3.3
o5
o0
v0
n-0.38
n2.0
o2
n-3.1
o5
o0
v1
n-1.54
n2.0
o2
o2
o2
n0.20875608599999998
o5
v1
n4.0
o0
v0
n-0.38
o44
o0
o2
n-3.3
o5
o0
v0
n-0.38
n2.0
o2
n-3.1
o5
o0
v1
n-1.54
n2.0
o2
o2
o2
n14.118076
o5
v1
n2.0
o5
v0
n3.0
o44
o16
o5
v0
n2.0
o2
o2
o2
n0.060081383999999995
o5
v1
n3.0
o5
v0
n2.0
o44
o0
o2
n-0.607
o5
o0
v1
n-0.83
n2.0
o2
n-1.2
o5
o0
v0
n-1.94
n2.0
o2
o2
o2
n-0.01875393366
o5
v1
n2.72
o5
v0
n3.0
o44
o0
o2
n-0.66
o5
o0
v1
n-1.22
n2.0
o2
n-1.47
o5
o0
v0
n-1.96
n2.0
o2
o2
o2
n-5.567532
o5
v1
n1.94
o5
v0
n3.0
o44
o16
o5
v0
n2.0
o2
o2
o2
n-6.050604
o5
v1
n2.0
v0
o44
o16
o5
v0
n2.0
o2
o2
o2
n-0.9907159999999999
v1
v0
o44
o2
n-1.0
v0
o2
o2
o2
n-0.002407175
o5
v1
n0.83
o5
v0
n8.0
o44
o2
n-1.0
v0
o2
o2
o2
n-0.194721384
v0
o5
v1
n2.5
o44
o0
o2
n-0.66
o5
o0
v0
n-0.82
n2.0
o2
n-0.83
o5
o0
v1
n-1.08
n2.0
o2
o2
o2
n-0.194721384
o5
v1
n2.5
o0
v0
n-0.82
o44
o0
o2
n-0.66
o5
o0
v0
n-0.82
n2.0
o2
n-0.83
o5
o0
v1
n-1.08
n2.0
o2
o2
o2
n-0.3922498
v1
v0
o44
o2
n-1.0
v0
o2
o2
o2
n-1.6406454
o5
v1
n2.5
v0
o44
o0
o2
n-1.12
o5
o0
v0
n-0.69
n2.0
o2
n-0.4
o5
o0
v1
n-0.56
n2.0
o2
o2
o2
n-7.141446
o5
v1
n4.0
v0
o44
o0
o2
n-6.0
o5
o0
v0
n-0.7
n2.0
o2
n-41.0
o5
o0
v1
n-1.4
n2.0
o2
o2
o2
n-4.033736
o5
v1
n2.0
o5
v0
n5.0
o44
o16
o5
v0
n2.0
o2
o2
o2
n-0.03162971
o5
v1
n4.0
o0
o2
n-6.6
v0
n2.508
o44
o0
o2
n-3.3
o5
o0
v0
n-0.38
n2.0
o2
n-3.1
o5
o0
v1
n-1.54
n2.0
o2
o2
o2
n-0.1348018
o5
v1
n0.83
o5
v0
n6.0
o44
o2
n-1.0
v0
o2
o2
o2
n-1.442772
o5
v1
n2.66
o5
v0
n4.0
o44
o16
o5
v0
n2.0
o2
o2
o2
n-1.5904738940000003
v0
o5
v1
n1.6
o44
o0
o2
n-0.77
o5
o0
v1
n-1.21
n2.0
o2
n-1.07
o5
o0
v0
n-0.78
n2.0
o2
o2
o2
n-1.5904738940000003
o5
v1
n1.6
o0
v0
n-0.78
o44
o0
o2
n-0.77
o5
o0
v1
n-1.21
n2.0
o2
n-1.07
o5
o0
v0
n-0.78
n2.0
o2
o2
o2
n-0.058013484
o5
v1
n4.0
o5
v0
n2.0
o44
o0
o2
n-0.07
o5
o0
v1
n-1.81
n2.0
o2
n-1.93
o5
o0
v0
n-1.3
n2.0
o2
o2
o2
o2
n2.530031504
v1
v0
o0
v0
n-0.91
o44
o0
o2
n-387.0
o5
o0
v1
n-1.12
n2.0
o2
n-15.4
o5
o0
v0
n-0.91
n2.0
o2
o2
o2
o2
n42.848676
o5
v1
n4.0
o5
v0
n2.0
o0
v0
n-0.7
o44
o0
o2
n-6.0
o5
o0
v0
n-0.7
n2.0
o2
n-41.0
o5
o0
v1
n-1.4
n2.0
o2
o2
o2
o2
n0.019136667
o5
v1
n2.72
o5
v0
n2.0
o0
o2
n-2.94
v0
n5.7623999999999995
o44
o0
o2
n-0.66
o5
o0
v1
n-1.22
n2.0
o2
n-1.47
o5
o0
v0
n-1.96
n2.0
o2
o2
o2
o2
n1.837522848
o5
v1
n2.5
o5
v0
n2.0
o0
v0
n-0.69
o44
o0
o2
n-1.12
o5
o0
v0
n-0.69
n2.0
o2
n-0.4
o5
o0
v1
n-0.56
n2.0
o2
o2
o2
o2
n0.12016276799999999
v0
o5
v1
n3.0
o0
v0
n-1.94
o44
o0
o2
n-0.607
o5
o0
v1
n-0.83
n2.0
o2
n-1.2
o5
o0
v0
n-1.94
n2.0
o2
o2
o2
o2
n0.0300588
o5
v1
n4.0
v0
o0
o2
n-3.86
v0
n5.018
o44
o0
o2
n-0.07
o5
o0
v1
n-1.81
n2.0
o2
n-1.93
o5
o0
v0
n-1.3
n2.0
o2
o2
o2
o2
n-0.05626180098
o5
v1
n2.72
o5
v0
n2.0
o0
v0
n-1.96
o44
o0
o2
n-0.66
o5
o0
v1
n-1.22
n2.0
o2
n-1.47
o5
o0
v0
n-1.96
n2.0
o2
o2
o2
o2
n-0.08214388
v1
v0
o0
o2
n-30.8
v0
n28.028000000000002
o44
o0
o2
n-387.0
o5
o0
v1
n-1.12
n2.0
o2
n-15.4
o5
o0
v0
n-0.91
n2.0
o2
o2
o2
o2
n-0.05006782
o5
v1
n3.0
v0
o0
o2
n-2.4
v0
n4.656
o44
o0
o2
n-0.607
o5
o0
v1
n-0.83
n2.0
o2
n-1.2
o5
o0
v0
n-1.94
n2.0
o2
o2
o2
o2
n-0.8203227
o5
v1
n2.5
o5
v0
n2.0
o0
o2
n-2.24
v0
n1.5456
o44
o0
o2
n-1.12
o5
o0
v0
n-0.69
n2.0
o2
n-0.4
o5
o0
v1
n-0.56
n2.0
o2
o2
o2
o2
n-3.570723
o5
v1
n4.0
o5
v0
n2.0
o0
o2
n-12.0
v0
n8.399999999999999
o44
o0
o2
n-6.0
o5
o0
v0
n-0.7
n2.0
o2
n-41.0
o5
o0
v1
n-1.4
n2.0
o2
o2
o2
o2
n-0.116026968
v0
o5
v1
n4.0
o0
v0
n-1.3
o44
o0
o2
n-0.07
o5
o0
v1
n-1.81
n2.0
o2
n-1.93
o5
o0
v0
n-1.3
n2.0
o2
o2
o2
o2
o2
n1.265015752
v1
o5
v0
n2.0
o0
v0
n-0.91
o0
o2
n-30.8
v0
n28.028000000000002
o44
o0
o2
n-387.0
o5
o0
v1
n-1.12
n2.0
o2
n-15.4
o5
o0
v0
n-0.91
n2.0
o2
o2
o2
o2
o2
n0.612507616
o5
v1
n2.5
o5
v0
n3.0
o0
v0
n-0.69
o0
o2
n-2.24
v0
n1.5456
o44
o0
o2
n-1.12
o5
o0
v0
n-0.69
n2.0
o2
n-0.4
o5
o0
v1
n-0.56
n2.0
o2
o2
o2
o2
o2
n14.282892
o5
v1
n4.0
o5
v0
n3.0
o0
v0
n-0.7
o0
o2
n-12.0
v0
n8.399999999999999
o44
o0
o2
n-6.0
o5
o0
v0
n-0.7
n2.0
o2
n-41.0
o5
o0
v1
n-1.4
n2.0
o2
o2
o2
o2
o2
n0.20875608599999998
v0
o5
v1
n4.0
o0
v0
n-0.38
o0
o2
n-6.6
v0
n2.508
o44
o0
o2
n-3.3
o5
o0
v0
n-0.38
n2.0
o2
n-3.1
o5
o0
v1
n-1.54
n2.0
o2
o2
o2
o2
o2
n0.060081383999999995
o5
v1
n3.0
o5
v0
n2.0
o0
v0
n-1.94
o0
o2
n-2.4
v0
n4.656
o44
o0
o2
n-0.607
o5
o0
v1
n-0.83
n2.0
o2
n-1.2
o5
o0
v0
n-1.94
n2.0
o2
o2
o2
o2
o2
n-0.01875393366
o5
v1
n2.72
o5
v0
n3.0
o0
v0
n-1.96
o0
o2
n-2.94
v0
n5.7623999999999995
o44
o0
o2
n-0.66
o5
o0
v1
n-1.22
n2.0
o2
n-1.47
o5
o0
v0
n-1.96
n2.0
o2
o2
o2
o2
o2
n-0.194721384
v0
o5
v1
n2.5
o0
v0
n-0.82
o0
o2
n-1.32
v0
n1.0824
o44
o0
o2
n-0.66
o5
o0
v0
n-0.82
n2.0
o2
n-0.83
o5
o0
v1
n-1.08
n2.0
o2
o2
o2
o2
o2
n-1.5904738940000003
v0
o5
v1
n1.6
o0
v0
n-0.78
o0
o2
n-2.14
v0
n1.6692000000000002
o44
o0
o2
n-0.77
o5
o0
v1
n-1.21
n2.0
o2
n-1.07
o5
o0
v0
n-0.78
n2.0
o2
o2
o2
o2
o2
n-0.058013484
o5
v1
n4.0
o5
v0
n2.0
o0
v0
n-1.3
o0
o2
n-3.86
v0
n5.018
o44
o0
o2
n-0.07
o5
o0
v1
n-1.81
n2.0
o2
n-1.93
o5
o0
v0
n-1.3
n2.0
O8 0
o54
30
o2
n0.04341002
o5
v0
n4.0
o2
n-1.382953
o5
v0
n2.0
o2
o2
n0.06071735
o5
v0
n3.0
o5
v1
n-0.5
o2
o2
n0.35264682440000006
o5
v0
n2.0
o5
v1
n-0.32399999999999995
o2
o2
n0.1961249
o5
v0
n2.0
o44
o2
n-1.0
v0
o2
o2
n0.23300136
v0
o5
v1
n-0.795
o2
o2
n-0.04107194
o5
v0
n2.0
o44
o0
o2
n-387.0
o5
o0
v1
n-1.12
n2.0
o2
n-15.4
o5
o0
v0
n-0.91
n2.0
o2
o2
n-0.4776022160000001
v0
o5
v1
n-0.43999999999999995
o2
o2
n-0.5984662
v0
o44
o2
n-1.0
v0
o2
o2
o2
n0.01735057808
o5
v0
n3.0
o5
v1
n1.7200000000000002
o44
o0
o2
n-0.66
o5
o0
v1
n-1.22
n2.0
o2
n-1.47
o5
o0
v0
n-1.96
n2.0
o2
o2
o2
n1.1891393600000002
v0
o5
v1
n0.6000000000000001
o44
o0
o2
n-0.77
o5
o0
v1
n-1.21
n2.0
o2
n-1.07
o5
o0
v0
n-0.78
n2.0
o2
o2
o2
n0.36879049999999997
v0
o5
v1
n1.5
o44
o0
o2
n-0.66
o5
o0
v0
n-0.82
n2.0
o2
n-0.83
o5
o0
v1
n-1.08
n2.0
o2
o2
o2
n0.0601176
o5
v0
n2.0
o5
v1
n3.0
o44
o0
o2
n-0.07
o5
o0
v1
n-1.81
n2.0
o2
n-1.93
o5
o0
v0
n-1.3
n2.0
o2
o2
o2
n-2.70025302
v0
o5
v1
n0.94
o44
o16
o5
v0
n2.0
o2
o2
o2
n-0.00199795525
o5
v0
n8.0
o5
v1
n-0.17000000000000004
o44
o2
n-1.0
v0
o2
o2
o2
n-0.07510173
o5
v0
n2.0
o5
v1
n2.0
o44
o0
o2
n-0.607
o5
o0
v1
n-0.83
n2.0
o2
n-1.2
o5
o0
v0
n-1.94
n2.0
o2
o2
o2
n-2.016868
v1
o5
v0
n3.0
o44
o16
o5
v0
n2.0
o2
o2
o2
n-0.12651884
v0
o5
v1
n3.0
o44
o0
o2
n-3.3
o5
o0
v0
n-0.38
n2.0
o2
n-3.1
o5
o0
v1
n-1.54
n2.0
o2
o2
o2
n-4.760964
o5
v0
n3.0
o5
v1
n3.0
o44
o0
o2
n-41.0
o5
o0
v1
n-1.4
n2.0
o2
n-6.0
o5
o0
v0
n-0.7
n2.0
o2
o2
o2
n-0.68360225
o5
v0
n3.0
o5
v1
n1.5
o44
o0
o2
n-1.12
o5
o0
v0
n-0.69
n2.0
o2
n-0.4
o5
o0
v1
n-0.56
n2.0
o2
o2
o2
n-0.9594433800000001
o5
v0
n2.0
o5
v1
n1.6600000000000001
o44
o16
o5
v0
n2.0
o2
o2
o2
o2
n0.7432121
v0
o5
v1
n1.6
o0
o2
n-1.54
v1
n1.8634
o44
o0
o2
n-0.77
o5
o0
v1
n-1.21
n2.0
o2
n-1.07
o5
o0
v0
n-0.78
n2.0
o2
o2
o2
o2
n0.1475162
v0
o5
v1
n2.5
o0
o2
n-1.66
v1
n1.7928
o44
o0
o2
n-0.66
o5
o0
v0
n-0.82
n2.0
o2
n-0.83
o5
o0
v1
n-1.08
n2.0
o2
o2
o2
o2
n0.006378889
o5
v0
n3.0
o5
v1
n2.72
o0
o2
n-1.32
v1
n1.6104
o44
o0
o2
n-0.66
o5
o0
v1
n-1.22
n2.0
o2
n-1.47
o5
o0
v0
n-1.96
n2.0
o2
o2
o2
o2
n0.0150294
o5
v0
n2.0
o5
v1
n4.0
o0
o2
n-0.14
v1
n0.2534
o44
o0
o2
n-0.07
o5
o0
v1
n-1.81
n2.0
o2
n-1.93
o5
o0
v0
n-1.3
n2.0
o2
o2
o2
o2
n-0.2734409
o5
v0
n3.0
o5
v1
n2.5
o0
o2
n-0.8
v1
n0.44800000000000006
o44
o0
o2
n-1.12
o5
o0
v0
n-0.69
n2.0
o2
n-0.4
o5
o0
v1
n-0.56
n2.0
o2
o2
o2
o2
n-0.04107194
v1
o5
v0
n2.0
o0
o2
n-774.0
v1
n866.8800000000001
o44
o0
o2
n-387.0
o5
o0
v1
n-1.12
n2.0
o2
n-15.4
o5
o0
v0
n-0.91
n2.0
o2
o2
o2
o2
n-0.02503391
o5
v0
n2.0
o5
v1
n3.0
o0
o2
n-1.214
v1
n1.00762
o44
o0
o2
n-0.607
o5
o0
v1
n-0.83
n2.0
o2
n-1.2
o5
o0
v0
n-1.94
n2.0
o2
o2
o2
o2
n-0.03162971
v0
o5
v1
n4.0
o0
o2
n-6.2
v1
n9.548
o44
o0
o2
n-3.3
o5
o0
v0
n-0.38
n2.0
o2
n-3.1
o5
o0
v1
n-1.54
n2.0
o2
o2
o2
o2
n-1.190241
o5
v0
n3.0
o5
v1
n4.0
o0
o2
n-82.0
v1
n114.8
o44
o0
o2
n-41.0
o5
o0
v1
n-1.4
n2.0
o2
n-6.0
o5
o0
v0
n-0.7
n2.0
O9 0
o54
52
o2
o2
n0.21014497504000001
v0
o5
v1
n-1.44
o2
o2
n-0.030358675
o5
v0
n3.0
o5
v1
n-1.5
o2
o2
n-0.1852360812
v0
o5
v1
n-1.795
o2
o2
n-0.1142575711056
o5
v0
n2.0
o5
v1
n-1.3239999999999998
o2
o2
n-2.016868
o5
v0
n3.0
o44
o16
o5
v0
n2.0
o2
o2
o2
n0.5531857499999999
v0
o5
v1
n0.5
o44
o0
o2
n-0.66
o5
o0
v0
n-0.82
n2.0
o2
n-0.83
o5
o0
v1
n-1.08
n2.0
o2
o2
o2
n0.196104202
v0
o5
v1
n4.0
o44
o0
o2
n-3.3
o5
o0
v0
n-0.38
n2.0
o2
n-3.1
o5
o0
v1
n-1.54
n2.0
o2
o2
o2
n0.21875272
o5
v0
n3.0
o5
v1
n2.5
o44
o0
o2
n-1.12
o5
o0
v0
n-0.69
n2.0
o2
n-0.4
o5
o0
v1
n-0.56
n2.0
o2
o2
o2
n0.7134836160000002
v0
o5
v1
n-0.3999999999999999
o44
o0
o2
n-0.77
o5
o0
v1
n-1.21
n2.0
o2
n-1.07
o5
o0
v0
n-0.78
n2.0
o2
o2
o2
n0.029842994297600005
o5
v0
n3.0
o5
v1
n0.7200000000000002
o44
o0
o2
n-0.66
o5
o0
v1
n-1.22
n2.0
o2
n-1.47
o5
o0
v0
n-1.96
n2.0
o2
o2
o2
n0.0003396523925000001
o5
v0
n8.0
o5
v1
n-1.17
o44
o2
n-1.0
v0
o2
o2
o2
n0.1803528
o5
v0
n2.0
o5
v1
n2.0
o44
o0
o2
n-0.07
o5
o0
v1
n-1.81
n2.0
o2
n-1.93
o5
o0
v0
n-1.3
n2.0
o2
o2
o2
n97.59976200000001
o5
v0
n3.0
o5
v1
n4.0
o44
o0
o2
n-6.0
o5
o0
v0
n-0.7
n2.0
o2
n-41.0
o5
o0
v1
n-1.4
n2.0
o2
o2
o2
n0.03039116674
o5
v0
n2.0
o5
v1
n3.0
o44
o0
o2
n-0.607
o5
o0
v1
n-0.83
n2.0
o2
n-1.2
o5
o0
v0
n-1.94
n2.0
o2
o2
o2
n31.789681560000002
v1
o5
v0
n2.0
o44
o0
o2
n-387.0
o5
o0
v1
n-1.12
n2.0
o2
n-15.4
o5
o0
v0
n-0.91
n2.0
o2
o2
o2
n31.789681560000002
o5
v0
n2.0
o0
v1
n-1.12
o44
o0
o2
n-387.0
o5
o0
v1
n-1.12
n2.0
o2
n-15.4
o5
o0
v0
n-0.91
n2.0
o2
o2
o2
n-0.37955651999999995
v0
o5
v1
n2.0
o44
o0
o2
n-3.3
o5
o0
v0
n-0.38
n2.0
o2
n-3.1
o5
o0
v1
n-1.54
n2.0
o2
o2
o2
n-0.24487689199999996
v0
o5
v1
n2.5
o44
o0
o2
n-0.66
o5
o0
v0
n-0.82
n2.0
o2
n-0.83
o5
o0
v1
n-1.08
n2.0
o2
o2
o2
n-1.1445466340000001
v0
o5
v1
n1.6
o44
o0
o2
n-0.77
o5
o0
v1
n-1.21
n2.0
o2
n-1.07
o5
o0
v0
n-0.78
n2.0
o2
o2
o2
n-0.04107194
o5
v0
n2.0
o0
o2
n-774.0
v1
n866.8800000000001
o44
o0
o2
n-387.0
o5
o0
v1
n-1.12
n2.0
o2
n-15.4
o5
o0
v0
n-0.91
n2.0
o2
o2
o2
n-0.15020346
o5
v0
n2.0
v1
o44
o0
o2
n-0.607
o5
o0
v1
n-0.83
n2.0
o2
n-1.2
o5
o0
v0
n-1.94
n2.0
o2
o2
o2
n-2.5382378387999998
v0
o5
v1
n-0.06000000000000005
o44
o16
o5
v0
n2.0
o2
o2
o2
n-14.282892
o5
v0
n3.0
o5
v1
n2.0
o44
o0
o2
n-6.0
o5
o0
v0
n-0.7
n2.0
o2
n-41.0
o5
o0
v1
n-1.4
n2.0
o2
o2
o2
n-1.025403375
o5
v0
n3.0
o5
v1
n0.5
o44
o0
o2
n-1.12
o5
o0
v0
n-0.69
n2.0
o2
n-0.4
o5
o0
v1
n-0.56
n2.0
o2
o2
o2
n-0.002104116
o5
v0
n2.0
o5
v1
n4.0
o44
o0
o2
n-0.07
o5
o0
v1
n-1.81
n2.0
o2
n-1.93
o5
o0
v0
n-1.3
n2.0
o2
o2
o2
n-0.00842013348
o5
v0
n3.0
o5
v1
n2.72
o44
o0
o2
n-0.66
o5
o0
v1
n-1.22
n2.0
o2
n-1.47
o5
o0
v0
n-1.96
n2.0
o2
o2
o2
n-1.5926760108000002
o5
v0
n2.0
o5
v1
n0.6600000000000001
o44
o16
o5
v0
n2.0
o2
o2
o2
o2
n0.5468818
o5
v0
n3.0
o5
v1
n1.5
o0
v1
n-0.56
o44
o0
o2
n-1.12
o5
o0
v0
n-0.69
n2.0
o2
n-0.4
o5
o0
v1
n-0.56
n2.0
o2
o2
o2
o2
n0.784416808
v0
o5
v1
n3.0
o0
v1
n-1.54
o44
o0
o2
n-3.3
o5
o0
v0
n-0.38
n2.0
o2
n-3.1
o5
o0
v1
n-1.54
n2.0
o2
o2
o2
o2
n0.09117350022000001
o5
v0
n2.0
o5
v1
n2.0
o0
v1
n-0.83
o44
o0
o2
n-0.607
o5
o0
v1
n-0.83
n2.0
o2
n-1.2
o5
o0
v0
n-1.94
n2.0
o2
o2
o2
o2
n0.01735057808
o5
v0
n3.0
o5
v1
n1.7200000000000002
o0
o2
n-1.32
v1
n1.6104
o44
o0
o2
n-0.66
o5
o0
v1
n-1.22
n2.0
o2
n-1.47
o5
o0
v0
n-1.96
n2.0
o2
o2
o2
o2
n1.1891393600000002
v0
o5
v1
n0.6000000000000001
o0
o2
n-1.54
v1
n1.8634
o44
o0
o2
n-0.77
o5
o0
v1
n-1.21
n2.0
o2
n-1.07
o5
o0
v0
n-0.78
n2.0
o2
o2
o2
o2
n0.36879049999999997
v0
o5
v1
n1.5
o0
o2
n-1.66
v1
n1.7928
o44
o0
o2
n-0.66
o5
o0
v0
n-0.82
n2.0
o2
n-0.83
o5
o0
v1
n-1.08
n2.0
o2
o2
o2
o2
n390.39904800000005
o5
v0
n3.0
o5
v1
n3.0
o0
v1
n-1.4
o44
o0
o2
n-6.0
o5
o0
v0
n-0.7
n2.0
o2
n-41.0
o5
o0
v1
n-1.4
n2.0
o2
o2
o2
o2
n0.0601176
o5
v0
n2.0
o5
v1
n3.0
o0
o2
n-0.14
v1
n0.2534
o44
o0
o2
n-0.07
o5
o0
v1
n-1.81
n2.0
o2
n-1.93
o5
o0
v0
n-1.3
n2.0
o2
o2
o2
o2
n-0.022902763065600004
o5
v0
n3.0
o5
v1
n1.7200000000000002
o0
v1
n-1.22
o44
o0
o2
n-0.66
o5
o0
v1
n-1.22
n2.0
o2
n-1.47
o5
o0
v0
n-1.96
n2.0
o2
o2
o2
o2
n-0.07510173
o5
v0
n2.0
o5
v1
n2.0
o0
o2
n-1.214
v1
n1.00762
o44
o0
o2
n-0.607
o5
o0
v1
n-0.83
n2.0
o2
n-1.2
o5
o0
v0
n-1.94
n2.0
o2
o2
o2
o2
n-1.8312746144000003
v0
o5
v1
n0.6000000000000001
o0
v1
n-1.21
o44
o0
o2
n-0.77
o5
o0
v1
n-1.21
n2.0
o2
n-1.07
o5
o0
v0
n-0.78
n2.0
o2
o2
o2
o2
n-0.12651884
v0
o5
v1
n3.0
o0
o2
n-6.2
v1
n9.548
o44
o0
o2
n-3.3
o5
o0
v0
n-0.38
n2.0
o2
n-3.1
o5
o0
v1
n-1.54
n2.0
o2
o2
o2
o2
n-0.008416464
o5
v0
n2.0
o5
v1
n3.0
o0
v1
n-1.81
o44
o0
o2
n-0.07
o5
o0
v1
n-1.81
n2.0
o2
n-1.93
o5
o0
v0
n-1.3
n2.0
o2
o2
o2
o2
n-4.760964
o5
v0
n3.0
o5
v1
n3.0
o0
o2
n-82.0
v1
n114.8
o44
o0
o2
n-6.0
o5
o0
v0
n-0.7
n2.0
o2
n-41.0
o5
o0
v1
n-1.4
n2.0
o2
o2
o2
o2
n-0.6121922299999999
v0
o5
v1
n1.5
o0
v1
n-1.08
o44
o0
o2
n-0.66
o5
o0
v0
n-0.82
n2.0
o2
n-0.83
o5
o0
v1
n-1.08
n2.0
o2
o2
o2
o2
n-0.68360225
o5
v0
n3.0
o5
v1
n1.5
o0
o2
n-0.8
v1
n0.44800000000000006
o44
o0
o2
n-1.12
o5
o0
v0
n-0.69
n2.0
o2
n-0.4
o5
o0
v1
n-0.56
n2.0
o2
o2
o2
o2
o2
n0.196104202
v0
o5
v1
n4.0
o0
v1
n-1.54
o0
o2
n-6.2
v1
n9.548
o44
o0
o2
n-3.3
o5
o0
v0
n-0.38
n2.0
o2
n-3.1
o5
o0
v1
n-1.54
n2.0
o2
o2
o2
o2
o2
n0.21875272
o5
v0
n3.0
o5
v1
n2.5
o0
v1
n-0.56
o0
o2
n-0.8
v1
n0.44800000000000006
o44
o0
o2
n-1.12
o5
o0
v0
n-0.69
n2.0
o2
n-0.4
o5
o0
v1
n-0.56
n2.0
o2
o2
o2
o2
o2
n97.59976200000001
o5
v0
n3.0
o5
v1
n4.0
o0
v1
n-1.4
o0
o2
n-82.0
v1
n114.8
o44
o0
o2
n-6.0
o5
o0
v0
n-0.7
n2.0
o2
n-41.0
o5
o0
v1
n-1.4
n2.0
o2
o2
o2
o2
o2
n0.03039116674
o5
v0
n2.0
o5
v1
n3.0
o0
v1
n-0.83
o0
o2
n-1.214
v1
n1.00762
o44
o0
o2
n-0.607
o5
o0
v1
n-0.83
n2.0
o2
n-1.2
o5
o0
v0
n-1.94
n2.0
o2
o2
o2
o2
o2
n31.789681560000002
v1
o5
v0
n2.0
o0
v1
n-1.12
o0
o2
n-774.0
v1
n866.8800000000001
o44
o0
o2
n-387.0
o5
o0
v1
n-1.12
n2.0
o2
n-15.4
o5
o0
v0
n-0.91
n2.0
o2
o2
o2
o2
o2
n-0.24487689199999996
v0
o5
v1
n2.5
o0
v1
n-1.08
o0
o2
n-1.66
v1
n1.7928
o44
o0
o2
n-0.66
o5
o0
v0
n-0.82
n2.0
o2
n-0.83
o5
o0
v1
n-1.08
n2.0
o2
o2
o2
o2
o2
n-1.1445466340000001
v0
o5
v1
n1.6
o0
v1
n-1.21
o0
o2
n-1.54
v1
n1.8634
o44
o0
o2
n-0.77
o5
o0
v1
n-1.21
n2.0
o2
n-1.07
o5
o0
v0
n-0.78
n2.0
o2
o2
o2
o2
o2
n-0.002104116
o5
v0
n2.0
o5
v1
n4.0
o0
v1
n-1.81
o0
o2
n-0.14
v1
n0.2534
o44
o0
o2
n-0.07
o5
o0
v1
n-1.81
n2.0
o2
n-1.93
o5
o0
v0
n-1.3
n2.0
o2
o2
o2
o2
o2
n-0.00842013348
o5
v0
n3.0
o5
v1
n2.72
o0
v1
n-1.22
o0
o2
n-1.32
v1
n1.6104
o44
o0
o2
n-0.66
o5
o0
v1
n-1.22
n2.0
o2
n-1.47
o5
o0
v0
n-1.96
n2.0
O10 0
o54
52
o2
n0.23300136
o5
v1
n-0.795
o2
n0.17364008
o5
v0
n3.0
o2
n-0.4776022160000001
o5
v1
n-0.43999999999999995
o2
n-0.5984662
o44
o2
n-1.0
v0
o2
o2
n0.18215205
o5
v1
n-0.5
o5
v0
n2.0
o2
o2
n0.9907159999999999
v0
o44
o2
n-1.0
v0
o2
o2
n0.7052936488000001
v0
o5
v1
n-0.32399999999999995
o2
o2
n1.1891393600000002
o5
v1
n0.6000000000000001
o44
o0
o2
n-0.77
o5
o0
v1
n-1.21
n2.0
o2
n-1.07
o5
o0
v0
n-0.78
n2.0
o2
o2
n0.36879049999999997
o5
v1
n1.5
o44
o0
o2
n-0.66
o5
o0
v0
n-0.82
n2.0
o2
n-0.83
o5
o0
v1
n-1.08
n2.0
o2
o2
n-0.08214388
v0
o44
o0
o2
n-387.0
o5
o0
v1
n-1.12
n2.0
o2
n-15.4
o5
o0
v0
n-0.91
n2.0
o2
o2
n-2.70025302
o5
v1
n0.94
o44
o16
o5
v0
n2.0
o2
o2
n-0.1961249
o5
v0
n2.0
o44
o2
n-1.0
v0
o2
o2
n-0.12651884
o5
v1
n3.0
o44
o0
o2
n-3.3
o5
o0
v0
n-0.38
n2.0
o2
n-3.1
o5
o0
v1
n-1.54
n2.0
o2
o2
o2
n5.40050604
o5
v1
n0.94
o5
v0
n2.0
o44
o16
o5
v0
n2.0
o2
o2
o2
n0.196104202
o5
v1
n4.0
o0
v1
n-1.54
o44
o0
o2
n-3.3
o5
o0
v0
n-0.38
n2.0
o2
n-3.1
o5
o0
v1
n-1.54
n2.0
o2
o2
o2
n0.00199795525
o5
v1
n-0.17000000000000004
o5
v0
n8.0
o44
o2
n-1.0
v0
o2
o2
o2
n4.033736
v1
o5
v0
n4.0
o44
o16
o5
v0
n2.0
o2
o2
o2
n0.05205173424
o5
v1
n1.7200000000000002
o5
v0
n2.0
o44
o0
o2
n-0.66
o5
o0
v1
n-1.22
n2.0
o2
n-1.47
o5
o0
v0
n-1.96
n2.0
o2
o2
o2
n1.9188867600000001
o5
v1
n1.6600000000000001
o5
v0
n3.0
o44
o16
o5
v0
n2.0
o2
o2
o2
n0.1202352
v0
o5
v1
n3.0
o44
o0
o2
n-0.07
o5
o0
v1
n-1.81
n2.0
o2
n-1.93
o5
o0
v0
n-1.3
n2.0
o2
o2
o2
n-6.050604
v1
o5
v0
n2.0
o44
o16
o5
v0
n2.0
o2
o2
o2
n-0.24487689199999996
o5
v1
n2.5
o0
v1
n-1.08
o44
o0
o2
n-0.66
o5
o0
v0
n-0.82
n2.0
o2
n-0.83
o5
o0
v1
n-1.08
n2.0
o2
o2
o2
n-1.1445466340000001
o5
v1
n1.6
o0
v1
n-1.21
o44
o0
o2
n-0.77
o5
o0
v1
n-1.21
n2.0
o2
n-1.07
o5
o0
v0
n-0.78
n2.0
o2
o2
o2
n-0.04107194
o5
v0
n2.0
o0
o2
n-30.8
v0
n28.028000000000002
o44
o0
o2
n-387.0
o5
o0
v1
n-1.12
n2.0
o2
n-15.4
o5
o0
v0
n-0.91
n2.0
o2
o2
o2
n-0.015983642
o5
v1
n-0.17000000000000004
o5
v0
n7.0
o44
o2
n-1.0
v0
o2
o2
o2
n-0.15020346
v0
o5
v1
n2.0
o44
o0
o2
n-0.607
o5
o0
v1
n-0.83
n2.0
o2
n-1.2
o5
o0
v0
n-1.94
n2.0
o2
o2
o2
n-14.282892
o5
v1
n3.0
o5
v0
n2.0
o44
o0
o2
n-6.0
o5
o0
v0
n-0.7
n2.0
o2
n-41.0
o5
o0
v1
n-1.4
n2.0
o2
o2
o2
n-2.05080675
o5
v1
n1.5
o5
v0
n2.0
o44
o0
o2
n-1.12
o5
o0
v0
n-0.69
n2.0
o2
n-0.4
o5
o0
v1
n-0.56
n2.0
o2
o2
o2
n-1.9188867600000001
v0
o5
v1
n1.6600000000000001
o44
o16
o5
v0
n2.0
o2
o2
o2
o2
n0.01735057808
o5
v1
n1.7200000000000002
o5
v0
n3.0
o0
o2
n-2.94
v0
n5.7623999999999995
o44
o0
o2
n-0.66
o5
o0
v1
n-1.22
n2.0
o2
n-1.47
o5
o0
v0
n-1.96
n2.0
o2
o2
o2
o2
n292.799286
o5
v1
n4.0
o5
v0
n2.0
o0
v1
n-1.4
o44
o0
o2
n-6.0
o5
o0
v0
n-0.7
n2.0
o2
n-41.0
o5
o0
v1
n-1.4
n2.0
o2
o2
o2
o2
n1.1891393600000002
v0
o5
v1
n0.6000000000000001
o0
o2
n-2.14
v0
n1.6692000000000002
o44
o0
o2
n-0.77
o5
o0
v1
n-1.21
n2.0
o2
n-1.07
o5
o0
v0
n-0.78
n2.0
o2
o2
o2
o2
n0.65625816
o5
v1
n2.5
o5
v0
n2.0
o0
v1
n-0.56
o44
o0
o2
n-1.12
o5
o0
v0
n-0.69
n2.0
o2
n-0.4
o5
o0
v1
n-0.56
n2.0
o2
o2
o2
o2
n0.36879049999999997
v0
o5
v1
n1.5
o0
o2
n-1.32
v0
n1.0824
o44
o0
o2
n-0.66
o5
o0
v0
n-0.82
n2.0
o2
n-0.83
o5
o0
v1
n-1.08
n2.0
o2
o2
o2
o2
n0.0601176
o5
v1
n3.0
o5
v0
n2.0
o0
o2
n-3.86
v0
n5.018
o44
o0
o2
n-0.07
o5
o0
v1
n-1.81
n2.0
o2
n-1.93
o5
o0
v0
n-1.3
n2.0
o2
o2
o2
o2
n0.06078233348
v0
o5
v1
n3.0
o0
v1
n-0.83
o44
o0
o2
n-0.607
o5
o0
v1
n-0.83
n2.0
o2
n-1.2
o5
o0
v0
n-1.94
n2.0
o2
o2
o2
o2
n63.579363120000004
v1
v0
o0
v1
n-1.12
o44
o0
o2
n-387.0
o5
o0
v1
n-1.12
n2.0
o2
n-15.4
o5
o0
v0
n-0.91
n2.0
o2
o2
o2
o2
n-0.07510173
o5
v1
n2.0
o5
v0
n2.0
o0
o2
n-2.4
v0
n4.656
o44
o0
o2
n-0.607
o5
o0
v1
n-0.83
n2.0
o2
n-1.2
o5
o0
v0
n-1.94
n2.0
o2
o2
o2
o2
n-0.12651884
v0
o5
v1
n3.0
o0
o2
n-6.6
v0
n2.508
o44
o0
o2
n-3.3
o5
o0
v0
n-0.38
n2.0
o2
n-3.1
o5
o0
v1
n-1.54
n2.0
o2
o2
o2
o2
n-0.004208232
v0
o5
v1
n4.0
o0
v1
n-1.81
o44
o0
o2
n-0.07
o5
o0
v1
n-1.81
n2.0
o2
n-1.93
o5
o0
v0
n-1.3
n2.0
o2
o2
o2
o2
n-4.760964
o5
v1
n3.0
o5
v0
n3.0
o0
o2
n-12.0
v0
n8.399999999999999
o44
o0
o2
n-6.0
o5
o0
v0
n-0.7
n2.0
o2
n-41.0
o5
o0
v1
n-1.4
n2.0
o2
o2
o2
o2
n-0.68360225
o5
v1
n1.5
o5
v0
n3.0
o0
o2
n-2.24
v0
n1.5456
o44
o0
o2
n-1.12
o5
o0
v0
n-0.69
n2.0
o2
n-0.4
o5
o0
v1
n-0.56
n2.0
o2
o2
o2
o2
n-0.02526040044
o5
v1
n2.72
o5
v0
n2.0
o0
v1
n-1.22
o44
o0
o2
n-0.66
o5
o0
v1
n-1.22
n2.0
o2
n-1.47
o5
o0
v0
n-1.96
n2.0
o2
o2
o2
o2
o2
n0.196104202
v0
o5
v1
n4.0
o0
v1
n-1.54
o0
o2
n-6.6
v0
n2.508
o44
o0
o2
n-3.3
o5
o0
v0
n-0.38
n2.0
o2
n-3.1
o5
o0
v1
n-1.54
n2.0
o2
o2
o2
o2
o2
n0.21875272
o5
v1
n2.5
o5
v0
n3.0
o0
v1
n-0.56
o0
o2
n-2.24
v0
n1.5456
o44
o0
o2
n-1.12
o5
o0
v0
n-0.69
n2.0
o2
n-0.4
o5
o0
v1
n-0.56
n2.0
o2
o2
o2
o2
o2
n97.59976200000001
o5
v1
n4.0
o5
v0
n3.0
o0
v1
n-1.4
o0
o2
n-12.0
v0
n8.399999999999999
o44
o0
o2
n-6.0
o5
o0
v0
n-0.7
n2.0
o2
n-41.0
o5
o0
v1
n-1.4
n2.0
o2
o2
o2
o2
o2
n0.03039116674
o5
v1
n3.0
o5
v0
n2.0
o0
v1
n-0.83
o0
o2
n-2.4
v0
n4.656
o44
o0
o2
n-0.607
o5
o0
v1
n-0.83
n2.0
o2
n-1.2
o5
o0
v0
n-1.94
n2.0
o2
o2
o2
o2
o2
n31.789681560000002
v1
o5
v0
n2.0
o0
v1
n-1.12
o0
o2
n-30.8
v0
n28.028000000000002
o44
o0
o2
n-387.0
o5
o0
v1
n-1.12
n2.0
o2
n-15.4
o5
o0
v0
n-0.91
n2.0
o2
o2
o2
o2
o2
n-0.24487689199999996
v0
o5
v1
n2.5
o0
v1
n-1.08
o0
o2
n-1.32
v0
n1.0824
o44
o0
o2
n-0.66
o5
o0
v0
n-0.82
n2.0
o2
n-0.83
o5
o0
v1
n-1.08
n2.0
o2
o2
o2
o2
o2
n-1.1445466340000001
v0
o5
v1
n1.6
o0
v1
n-1.21
o0
o2
n-2.14
v0
n1.6692000000000002
o44
o0
o2
n-0.77
o5
o0
v1
n-1.21
n2.0
o2
n-1.07
o5
o0
v0
n-0.78
n2.0
o2
o2
o2
o2
o2
n-0.002104116
o5
v1
n4.0
o5
v0
n2.0
o0
v1
n-1.81
o0
o2
n-3.86
v0
n5.018
o44
o0
o2
n-0.07
o5
o0
v1
n-1.81
n2.0
o2
n-1.93
o5
o0
v0
n-1.3
n2.0
o2
o2
o2
o2
o2
n-0.00842013348
o5
v1
n2.72
o5
v0
n3.0
o0
v1
n-1.22
o0
o2
n-2.94
v0
n5.7623999999999995
o44
o0
o2
n-0.66
o5
o0
v1
n-1.22
n2.0
o2
n-1.47
o5
o0
v0
n-1.96
n2.0
O11 0
o0
o54
6
o2
n1.1500616940414559
o5
o0
o16
o3
n1
v1
n1
n0.286
o2
n0.7037673936905474
o5
o0
o16
o3
n1
v1
n1
n0.521
o2
n0.6950815609799416
o5
o0
o16
o3
n1
v1
n1
n0.701
o2
n1.8850870474961088
o5
o0
o16
o3
n1
v1
n1
n5.657
o2
n-2.1702211585216302
o5
o0
o16
o3
n1
v1
n1
n6.864
o2
n2.21238242151199
o5
o0
o16
o3
n1
v1
n1
n15.279
n1.0
O12 0
o44
o2
v1
o54
6
o2
n-5.13562614673855
o5
o0
o16
o3
n1
v1
n1
n0.42
o2
n4.2053374767917395
o5
o0
o16
o3
n1
v1
n1
n0.56
o2
n-8.021462611933476
o5
o0
o16
o3
n1
v1
n1
n1.051
o2
n4.971018368148577
o5
o0
o16
o3
n1
v1
n1
n1.479
o2
n-4.664302402572978
o5
o0
o16
o3
n1
v1
n1
n3.598
o2
n-1.7964631156271889
o5
o0
o16
o3
n1
v1
n1
n16.862
O13 0
n0.0
x2
0 1.00000001
1 1.0
r
b
3
3
k1
0
G0 2
0 0
1 4.36399027654279
G1 1
0 0
G2 1
0 0
G3 1
1 0
G4 1
1 0
G5 2
0 0
1 0
G6 2
0 0
1 0
G7 2
0 0
1 -2.765906
G8 2
0 0
1 0
G9 2
0 0
1 0
G10 2
0 -2.765906
1 0
G11 1
1 0
G12 1
1 0
